#p hf/sto-3g scf=tight formcheck=(mo,basis)

H2O HF/STO-3G wfn for QMC

0 1
 O
 H   1  R1
 H   1  R1  2  A1

 R1    0.96000000
 A1  109.50000006


