Si
Silicon
 &control
    prefix="si"
    calculation = 'scf'
    restart_mode = 'from_scratch'
    pseudo_dir = '.'
    outdir = '.'
    wf_collect = .true.
    verbosity = 'high'
 /
 &system
    ibrav = 2
    celldm(1) = 10.20
    nat = 2
    ntyp = 1
    ecutwfc = 30.0
    input_dft = 'pbe'
    occupations = 'smearing'
    degauss = 0.002
    nosym = true
    noinv = true
 /
 &electrons
    mixing_mode = 'plain'
    mixing_beta = 0.7
    conv_thr =  1.0d-8
    diagonalization = 'david'
 /
 &ions
 /
ATOMIC_SPECIES
 Si  28.086  si.UPF
ATOMIC_POSITIONS {crystal}
Si 0.0 0.0 0.0
Si 0.25 0.25 0.25
K_POINTS crystal {automatic}
2 2 2 0 0 0

