 &control
    calculation = 'scf'
    restart_mode='from_scratch',
    prefix='aln',
    tstress = .false.
    tprnfor = .false.
    pseudo_dir ='./'
    outdir='./',
 /
 &system    
    ibrav=  0, celldm(1) = 5.8805, nat= 4, ntyp= 2,
    ecutwfc =120.0, nosym=.true., nbnd=16,
    nosym=.true.
 /
 &electrons
    diagonalization='david'
    mixing_mode = 'plain'
    mixing_beta = 0.45 
    conv_thr =  1.0d-9
 /
CELL_PARAMETERS {hexagonal}
 0.500  0.866  0.0000
 0.500 -0.866  0.0000
 0.000  0.000  1.6011
ATOMIC_SPECIES
 Al  26.9815  al_ppot.gon
 N   14.007    n_ppot.gon
ATOMIC_POSITIONS {crystal}
 Al  0.33333   0.66667  0.00000
 Al  0.66667   0.33333  0.50000
 N   0.33333   0.66667  0.38187
 N   0.66667   0.33333  0.88187
K_POINTS {automatic}
 1 1 1 0 0 0